Optimal - objective value 20260.00000000
      3 x0_4                   1                       0
      4 x0_5                   1         27.9999999999988
     11 x1_2                   1                       0
     29 x2_10                  1         19.9999999999995
     30 x3_0                   1         4.00000000000122
     47 x4_8                   1                       0
     58 x5_9                   1                       0
     63 x6_3                   1                      16
     76 x7_6                   1                       0
     81 x8_1                   1                      36
     97 x9_7                   1                       0
    100 x10_0                  1         4.00000000000087
    110 u1                    15                       0
    111 u2                    20                       0
    112 u3                    30                       0
    113 u4                     5                       0
    114 u5                     5                       0
    115 u6                    25                       0
    116 u7                    20                       0
    117 u8                    10                       0
    118 u9                    15                       0
    119 u10                   25                       0
